(set-info :origin "Horn problem converted to SMT-LIB2 using Eldarica (https://github.com/uuverifiers/eldarica)")
(set-logic HORN)
(declare-fun INV_MAIN_42 (Int Int Int Int Int Int Int Int Int Int Int Int) Bool)
(assert (forall ((A Int) (B Int) (C Int) (D Int) (E Int) (F Int) (G Int) (H Int) (I Int) (J Int) (K Int) (L Int))(=> (and (and (and (and (and (not (and (= K E) (not (= L F)))) (= B 0)) (= G A)) (= H C)) (= I D)) (= J D)) (INV_MAIN_42 A B C D E F G H I J K L))))
(assert (forall ((A Int) (B Int) (C Int) (D Int) (E Int) (F Int) (G Int) (H Int) (I Int) (J Int) (K Int) (L Int)) (not (and (and (and (and (and (INV_MAIN_42 A B C D E F G H I J K L) (not (forall ((A Int)) (not (= (+ (* 4 A) (- I J)) 1))))) (not (>= (- C B) 1))) (not (>= (- (+ I (* 4 H)) J) (- 2)))) (not (= L F))) (= K E)))))
(assert (forall ((A Int) (B Int) (C Int) (D Int) (E Int) (F Int) (G Int) (H Int) (I Int) (J Int) (K Int) (L Int)) (not (and (and (and (and (INV_MAIN_42 A B C D E F G H I J K L) (not (>= (- C B) 1))) (not (>= (- (+ I (* 4 H)) J) 1))) (not (= L F))) (= K E)))))
(assert (forall ((A Int) (B Int) (C Int) (D Int) (E Int) (F Int) (G Int) (H Int) (I Int) (J Int) (K Int) (L Int)) (not (and (and (and (and (and (INV_MAIN_42 A B C D E F G H I J K L) (not (forall ((A Int)) (not (= (+ (* 4 A) (- I J)) (- 2)))))) (not (>= (- C B) 1))) (not (>= (- (+ I (* 4 H)) J) (- 1)))) (not (= L F))) (= K E)))))
(assert (forall ((A Int) (B Int) (C Int) (D Int) (E Int) (F Int) (G Int) (H Int) (I Int) (J Int) (K Int) (L Int)) (not (and (and (and (and (and (INV_MAIN_42 A B C D E F G H I J K L) (not (forall ((A Int)) (not (= (+ (* 4 A) (- I J)) (- 1)))))) (not (>= (- C B) 1))) (not (<= J (+ I (* 4 H))))) (not (= L F))) (= K E)))))
(assert (forall ((A Int) (B Int) (C Int) (D Int) (E Int) (F Int) (G Int) (H Int) (I Int) (J Int) (K Int) (L Int) (M Int) (N Int) (O Int) (P Int) (Q Int) (R Int) (S Int) (T Int) (U Int) (V Int) (W Int) (X Int) (Y Int) (Z Int) (A1 Int) (B1 Int) (C1 Int) (D1 Int) (E1 Int) (F1 Int) (G1 Int) (H1 Int) (I1 Int) (J1 Int) (K1 Int) (L1 Int) (M1 Int) (N1 Int) (O1 Int) (P1 Int) (Q1 Int) (R1 Int) (S1 Int) (T1 Int) (U1 Int) (V1 Int) (W1 Int) (X1 Int) (Y1 Int) (Z1 Int) (A2 Int) (B2 Int) (C2 Int) (D2 Int) (E2 Int) (F2 Int) (G2 Int) (H2 Int))(=> (and (and (and (and (and (and (and (and (and (and (and (and (and (and (and (and (and (and (and (and (and (and (and (and (and (and (and (and (and (and (and (and (and (and (and (and (and (and (and (and (and (and (and (and (and (and (and (and (and (and (and (and (and (and (and (and (INV_MAIN_42 M N O P Q R S T U V W X) (INV_MAIN_42 Y Z A1 B1 C1 D1 E1 F1 G1 H1 I1 J1)) (INV_MAIN_42 K1 L1 M1 N1 O1 P1 Q1 R1 S1 T1 U1 V1)) (INV_MAIN_42 W1 X1 Y1 Z1 A2 B2 C2 D2 E2 F2 G2 H2)) (not (and (= (+ E (- (* (- 4) B) A)) (- 4)) (not (= D1 F))))) (not (and (= (+ E (- (* (- 4) B) D)) (- 4)) (not (= D1 F))))) (not (and (= (- K G) (- 4)) (not (= V1 L))))) (not (and (= (- K J) (- 4)) (not (= V1 L))))) (not (forall ((A Int)) (not (= (+ (* 4 A) (- I J)) (- 6)))))) (not (>= (- B C) 1))) (not (>= (+ J (- (* (- 4) H) I)) 3))) (= W1 A)) (= (- X1 B) (- 1))) (= Y1 C)) (= Z1 D)) (= A2 E)) (= B2 F)) (= (- C2 G) (- 4))) (= D2 H)) (= E2 I)) (= (- F2 J) (- 4))) (= G2 K)) (= H2 L)) (= K1 A)) (= (- L1 B) (- 1))) (= M1 C)) (= N1 D)) (= O1 E)) (= P1 F)) (= (- Q1 G) (- 4))) (= R1 H)) (= S1 I)) (= (- T1 J) (- 4))) (= (- U1 J) (- 4))) (= Y A)) (= (- Z B) (- 1))) (= A1 C)) (= B1 D)) (= (+ C1 (- (* (- 4) B) D)) (- 4))) (= (- E1 G) (- 4))) (= F1 H)) (= G1 I)) (= (- H1 J) (- 4))) (= I1 K)) (= J1 L)) (= M A)) (= (- N B) (- 1))) (= O C)) (= P D)) (= (+ Q (- (* (- 4) B) D)) (- 4))) (= R D1)) (= (- S G) (- 4))) (= T H)) (= U I)) (= (- V J) (- 4))) (= (- W J) (- 4))) (= X V1)) (INV_MAIN_42 A B C D E F G H I J K L))))
(assert (forall ((A Int) (B Int) (C Int) (D Int) (E Int) (F Int) (G Int) (H Int) (I Int) (J Int) (K Int) (L Int) (M Int) (N Int) (O Int) (P Int) (Q Int) (R Int) (S Int) (T Int) (U Int) (V Int) (W Int) (X Int) (Y Int) (Z Int) (A1 Int) (B1 Int) (C1 Int) (D1 Int) (E1 Int) (F1 Int) (G1 Int) (H1 Int) (I1 Int) (J1 Int) (K1 Int) (L1 Int) (M1 Int) (N1 Int) (O1 Int) (P1 Int) (Q1 Int) (R1 Int) (S1 Int) (T1 Int) (U1 Int) (V1 Int) (W1 Int) (X1 Int) (Y1 Int) (Z1 Int) (A2 Int) (B2 Int) (C2 Int) (D2 Int) (E2 Int) (F2 Int) (G2 Int) (H2 Int))(=> (and (and (and (and (and (and (and (and (and (and (and (and (and (and (and (and (and (and (and (and (and (and (and (and (and (and (and (and (and (and (and (and (and (and (and (and (and (and (and (and (and (and (and (and (and (and (and (and (and (and (and (and (and (and (and (and (INV_MAIN_42 M N O P Q R S T U V W X) (INV_MAIN_42 Y Z A1 B1 C1 D1 E1 F1 G1 H1 I1 J1)) (INV_MAIN_42 K1 L1 M1 N1 O1 P1 Q1 R1 S1 T1 U1 V1)) (INV_MAIN_42 W1 X1 Y1 Z1 A2 B2 C2 D2 E2 F2 G2 H2)) (not (and (= (+ E (- (* (- 4) B) A)) (- 4)) (not (= D1 F))))) (not (and (= (+ E (- (* (- 4) B) D)) (- 4)) (not (= D1 F))))) (not (and (= (- K G) (- 4)) (not (= V1 L))))) (not (and (= (- K J) (- 4)) (not (= V1 L))))) (not (forall ((A Int)) (not (= (+ (* 4 A) (- I J)) (- 3)))))) (not (>= (- B C) 1))) (not (>= (+ J (- (* (- 4) H) I)) 4))) (= W1 A)) (= (- X1 B) (- 1))) (= Y1 C)) (= Z1 D)) (= A2 E)) (= B2 F)) (= (- C2 G) (- 4))) (= D2 H)) (= E2 I)) (= (- F2 J) (- 4))) (= G2 K)) (= H2 L)) (= K1 A)) (= (- L1 B) (- 1))) (= M1 C)) (= N1 D)) (= O1 E)) (= P1 F)) (= (- Q1 G) (- 4))) (= R1 H)) (= S1 I)) (= (- T1 J) (- 4))) (= (- U1 J) (- 4))) (= Y A)) (= (- Z B) (- 1))) (= A1 C)) (= B1 D)) (= (+ C1 (- (* (- 4) B) D)) (- 4))) (= (- E1 G) (- 4))) (= F1 H)) (= G1 I)) (= (- H1 J) (- 4))) (= I1 K)) (= J1 L)) (= M A)) (= (- N B) (- 1))) (= O C)) (= P D)) (= (+ Q (- (* (- 4) B) D)) (- 4))) (= R D1)) (= (- S G) (- 4))) (= T H)) (= U I)) (= (- V J) (- 4))) (= (- W J) (- 4))) (= X V1)) (INV_MAIN_42 A B C D E F G H I J K L))))
(assert (forall ((A Int) (B Int) (C Int) (D Int) (E Int) (F Int) (G Int) (H Int) (I Int) (J Int) (K Int) (L Int) (M Int) (N Int) (O Int) (P Int) (Q Int) (R Int) (S Int) (T Int) (U Int) (V Int) (W Int) (X Int) (Y Int) (Z Int) (A1 Int) (B1 Int) (C1 Int) (D1 Int) (E1 Int) (F1 Int) (G1 Int) (H1 Int) (I1 Int) (J1 Int) (K1 Int) (L1 Int) (M1 Int) (N1 Int) (O1 Int) (P1 Int) (Q1 Int) (R1 Int) (S1 Int) (T1 Int) (U1 Int) (V1 Int) (W1 Int) (X1 Int) (Y1 Int) (Z1 Int) (A2 Int) (B2 Int) (C2 Int) (D2 Int) (E2 Int) (F2 Int) (G2 Int) (H2 Int))(=> (and (and (and (and (and (and (and (and (and (and (and (and (and (and (and (and (and (and (and (and (and (and (and (and (and (and (and (and (and (and (and (and (and (and (and (and (and (and (and (and (and (and (and (and (and (and (and (and (and (and (and (and (and (and (and (INV_MAIN_42 M N O P Q R S T U V W X) (INV_MAIN_42 Y Z A1 B1 C1 D1 E1 F1 G1 H1 I1 J1)) (INV_MAIN_42 K1 L1 M1 N1 O1 P1 Q1 R1 S1 T1 U1 V1)) (INV_MAIN_42 W1 X1 Y1 Z1 A2 B2 C2 D2 E2 F2 G2 H2)) (not (and (= (+ E (- (* (- 4) B) A)) (- 4)) (not (= D1 F))))) (not (and (= (+ E (- (* (- 4) B) D)) (- 4)) (not (= D1 F))))) (not (and (= (- K G) (- 4)) (not (= V1 L))))) (not (and (= (- K J) (- 4)) (not (= V1 L))))) (not (>= (- B C) 1))) (not (>= (+ J (- (* (- 4) H) I)) 1))) (= W1 A)) (= (- X1 B) (- 1))) (= Y1 C)) (= Z1 D)) (= A2 E)) (= B2 F)) (= (- C2 G) (- 4))) (= D2 H)) (= E2 I)) (= (- F2 J) (- 4))) (= G2 K)) (= H2 L)) (= K1 A)) (= (- L1 B) (- 1))) (= M1 C)) (= N1 D)) (= O1 E)) (= P1 F)) (= (- Q1 G) (- 4))) (= R1 H)) (= S1 I)) (= (- T1 J) (- 4))) (= (- U1 J) (- 4))) (= Y A)) (= (- Z B) (- 1))) (= A1 C)) (= B1 D)) (= (+ C1 (- (* (- 4) B) D)) (- 4))) (= (- E1 G) (- 4))) (= F1 H)) (= G1 I)) (= (- H1 J) (- 4))) (= I1 K)) (= J1 L)) (= M A)) (= (- N B) (- 1))) (= O C)) (= P D)) (= (+ Q (- (* (- 4) B) D)) (- 4))) (= R D1)) (= (- S G) (- 4))) (= T H)) (= U I)) (= (- V J) (- 4))) (= (- W J) (- 4))) (= X V1)) (INV_MAIN_42 A B C D E F G H I J K L))))
(assert (forall ((A Int) (B Int) (C Int) (D Int) (E Int) (F Int) (G Int) (H Int) (I Int) (J Int) (K Int) (L Int) (M Int) (N Int) (O Int) (P Int) (Q Int) (R Int) (S Int) (T Int) (U Int) (V Int) (W Int) (X Int) (Y Int) (Z Int) (A1 Int) (B1 Int) (C1 Int) (D1 Int) (E1 Int) (F1 Int) (G1 Int) (H1 Int) (I1 Int) (J1 Int) (K1 Int) (L1 Int) (M1 Int) (N1 Int) (O1 Int) (P1 Int) (Q1 Int) (R1 Int) (S1 Int) (T1 Int) (U1 Int) (V1 Int) (W1 Int) (X1 Int) (Y1 Int) (Z1 Int) (A2 Int) (B2 Int) (C2 Int) (D2 Int) (E2 Int) (F2 Int) (G2 Int) (H2 Int))(=> (and (and (and (and (and (and (and (and (and (and (and (and (and (and (and (and (and (and (and (and (and (and (and (and (and (and (and (and (and (and (and (and (and (and (and (and (and (and (and (and (and (and (and (and (and (and (and (and (and (and (and (and (and (and (and (and (INV_MAIN_42 M N O P Q R S T U V W X) (INV_MAIN_42 Y Z A1 B1 C1 D1 E1 F1 G1 H1 I1 J1)) (INV_MAIN_42 K1 L1 M1 N1 O1 P1 Q1 R1 S1 T1 U1 V1)) (INV_MAIN_42 W1 X1 Y1 Z1 A2 B2 C2 D2 E2 F2 G2 H2)) (not (and (= (+ E (- (* (- 4) B) A)) (- 4)) (not (= D1 F))))) (not (and (= (+ E (- (* (- 4) B) D)) (- 4)) (not (= D1 F))))) (not (and (= (- K G) (- 4)) (not (= V1 L))))) (not (and (= (- K J) (- 4)) (not (= V1 L))))) (not (forall ((A Int)) (not (= (+ (* 4 A) (- I J)) (- 5)))))) (not (>= (- B C) 1))) (not (>= (+ J (- (* (- 4) H) I)) 2))) (= W1 A)) (= (- X1 B) (- 1))) (= Y1 C)) (= Z1 D)) (= A2 E)) (= B2 F)) (= (- C2 G) (- 4))) (= D2 H)) (= E2 I)) (= (- F2 J) (- 4))) (= G2 K)) (= H2 L)) (= K1 A)) (= (- L1 B) (- 1))) (= M1 C)) (= N1 D)) (= O1 E)) (= P1 F)) (= (- Q1 G) (- 4))) (= R1 H)) (= S1 I)) (= (- T1 J) (- 4))) (= (- U1 J) (- 4))) (= Y A)) (= (- Z B) (- 1))) (= A1 C)) (= B1 D)) (= (+ C1 (- (* (- 4) B) D)) (- 4))) (= (- E1 G) (- 4))) (= F1 H)) (= G1 I)) (= (- H1 J) (- 4))) (= I1 K)) (= J1 L)) (= M A)) (= (- N B) (- 1))) (= O C)) (= P D)) (= (+ Q (- (* (- 4) B) D)) (- 4))) (= R D1)) (= (- S G) (- 4))) (= T H)) (= U I)) (= (- V J) (- 4))) (= (- W J) (- 4))) (= X V1)) (INV_MAIN_42 A B C D E F G H I J K L))))
(assert (forall ((A Int) (B Int) (C Int) (D Int) (E Int) (F Int) (G Int) (H Int) (I Int) (J Int) (K Int) (L Int) (M Int) (N Int) (O Int) (P Int) (Q Int) (R Int) (S Int) (T Int) (U Int) (V Int) (W Int) (X Int) (Y Int) (Z Int) (A1 Int) (B1 Int) (C1 Int) (D1 Int) (E1 Int) (F1 Int) (G1 Int) (H1 Int) (I1 Int) (J1 Int))(=> (and (and (and (and (and (and (and (and (and (and (and (and (and (and (and (and (and (and (and (and (and (and (and (and (and (and (and (and (and (and (INV_MAIN_42 M N O P Q R S T U V W X) (INV_MAIN_42 Y Z A1 B1 C1 D1 E1 F1 G1 H1 I1 J1)) (not (and (= (- K G) (- 4)) (not (= X L))))) (not (and (= (- K J) (- 4)) (not (= X L))))) (not (>= (- B C) 1))) (not (>= (+ J (- (* (- 4) H) I)) 1))) (not (= D A))) (= (+ E (- (* (- 4) B) A)) (- 4))) (= Y A)) (= (- Z B) (- 1))) (= A1 C)) (= B1 D)) (= (+ C1 (- (* (- 4) B) D)) (- 4))) (= D1 F)) (= (- E1 G) (- 4))) (= F1 H)) (= G1 I)) (= (- H1 J) (- 4))) (= I1 K)) (= J1 L)) (= M A)) (= (- N B) (- 1))) (= O C)) (= P D)) (= (+ Q (- (* (- 4) B) D)) (- 4))) (= R F)) (= (- S G) (- 4))) (= T H)) (= U I)) (= (- V J) (- 4))) (= (- W J) (- 4))) (INV_MAIN_42 A B C D E F G H I J K L))))
(assert (forall ((A Int) (B Int) (C Int) (D Int) (E Int) (F Int) (G Int) (H Int) (I Int) (J Int) (K Int) (L Int) (M Int) (N Int) (O Int) (P Int) (Q Int) (R Int) (S Int) (T Int) (U Int) (V Int) (W Int) (X Int) (Y Int) (Z Int) (A1 Int) (B1 Int) (C1 Int) (D1 Int) (E1 Int) (F1 Int) (G1 Int) (H1 Int) (I1 Int) (J1 Int))(=> (and (and (and (and (and (and (and (and (and (and (and (and (and (and (and (and (and (and (and (and (and (and (and (and (and (and (and (and (and (and (and (INV_MAIN_42 M N O P Q R S T U V W X) (INV_MAIN_42 Y Z A1 B1 C1 D1 E1 F1 G1 H1 I1 J1)) (not (and (= (- K G) (- 4)) (not (= X L))))) (not (and (= (- K J) (- 4)) (not (= X L))))) (not (forall ((A Int)) (not (= (+ (* 4 A) (- I J)) (- 3)))))) (not (>= (- B C) 1))) (not (>= (+ J (- (* (- 4) H) I)) 4))) (not (= D A))) (= (+ E (- (* (- 4) B) A)) (- 4))) (= Y A)) (= (- Z B) (- 1))) (= A1 C)) (= B1 D)) (= (+ C1 (- (* (- 4) B) D)) (- 4))) (= D1 F)) (= (- E1 G) (- 4))) (= F1 H)) (= G1 I)) (= (- H1 J) (- 4))) (= I1 K)) (= J1 L)) (= M A)) (= (- N B) (- 1))) (= O C)) (= P D)) (= (+ Q (- (* (- 4) B) D)) (- 4))) (= R F)) (= (- S G) (- 4))) (= T H)) (= U I)) (= (- V J) (- 4))) (= (- W J) (- 4))) (INV_MAIN_42 A B C D E F G H I J K L))))
(assert (forall ((A Int) (B Int) (C Int) (D Int) (E Int) (F Int) (G Int) (H Int) (I Int) (J Int) (K Int) (L Int) (M Int) (N Int) (O Int) (P Int) (Q Int) (R Int) (S Int) (T Int) (U Int) (V Int) (W Int) (X Int) (Y Int) (Z Int) (A1 Int) (B1 Int) (C1 Int) (D1 Int) (E1 Int) (F1 Int) (G1 Int) (H1 Int) (I1 Int) (J1 Int))(=> (and (and (and (and (and (and (and (and (and (and (and (and (and (and (and (and (and (and (and (and (and (and (and (and (and (and (and (and (and (and (and (INV_MAIN_42 M N O P Q R S T U V W X) (INV_MAIN_42 Y Z A1 B1 C1 D1 E1 F1 G1 H1 I1 J1)) (not (and (= (- K G) (- 4)) (not (= X L))))) (not (and (= (- K J) (- 4)) (not (= X L))))) (not (forall ((A Int)) (not (= (+ (* 4 A) (- I J)) (- 5)))))) (not (>= (- B C) 1))) (not (>= (+ J (- (* (- 4) H) I)) 2))) (not (= D A))) (= (+ E (- (* (- 4) B) A)) (- 4))) (= Y A)) (= (- Z B) (- 1))) (= A1 C)) (= B1 D)) (= (+ C1 (- (* (- 4) B) D)) (- 4))) (= D1 F)) (= (- E1 G) (- 4))) (= F1 H)) (= G1 I)) (= (- H1 J) (- 4))) (= I1 K)) (= J1 L)) (= M A)) (= (- N B) (- 1))) (= O C)) (= P D)) (= (+ Q (- (* (- 4) B) D)) (- 4))) (= R F)) (= (- S G) (- 4))) (= T H)) (= U I)) (= (- V J) (- 4))) (= (- W J) (- 4))) (INV_MAIN_42 A B C D E F G H I J K L))))
(assert (forall ((A Int) (B Int) (C Int) (D Int) (E Int) (F Int) (G Int) (H Int) (I Int) (J Int) (K Int) (L Int) (M Int) (N Int) (O Int) (P Int) (Q Int) (R Int) (S Int) (T Int) (U Int) (V Int) (W Int) (X Int) (Y Int) (Z Int) (A1 Int) (B1 Int) (C1 Int) (D1 Int) (E1 Int) (F1 Int) (G1 Int) (H1 Int) (I1 Int) (J1 Int))(=> (and (and (and (and (and (and (and (and (and (and (and (and (and (and (and (and (and (and (and (and (and (and (and (and (and (and (and (and (and (and (and (INV_MAIN_42 M N O P Q R S T U V W X) (INV_MAIN_42 Y Z A1 B1 C1 D1 E1 F1 G1 H1 I1 J1)) (not (and (= (- K G) (- 4)) (not (= X L))))) (not (and (= (- K J) (- 4)) (not (= X L))))) (not (forall ((A Int)) (not (= (+ (* 4 A) (- I J)) (- 6)))))) (not (>= (- B C) 1))) (not (>= (+ J (- (* (- 4) H) I)) 3))) (not (= D A))) (= (+ E (- (* (- 4) B) A)) (- 4))) (= Y A)) (= (- Z B) (- 1))) (= A1 C)) (= B1 D)) (= (+ C1 (- (* (- 4) B) D)) (- 4))) (= D1 F)) (= (- E1 G) (- 4))) (= F1 H)) (= G1 I)) (= (- H1 J) (- 4))) (= I1 K)) (= J1 L)) (= M A)) (= (- N B) (- 1))) (= O C)) (= P D)) (= (+ Q (- (* (- 4) B) D)) (- 4))) (= R F)) (= (- S G) (- 4))) (= T H)) (= U I)) (= (- V J) (- 4))) (= (- W J) (- 4))) (INV_MAIN_42 A B C D E F G H I J K L))))
(assert (forall ((A Int) (B Int) (C Int) (D Int) (E Int) (F Int) (G Int) (H Int) (I Int) (J Int) (K Int) (L Int) (M Int) (N Int) (O Int) (P Int) (Q Int) (R Int) (S Int) (T Int) (U Int) (V Int) (W Int) (X Int))(=> (and (and (and (and (and (and (and (and (and (and (and (and (and (and (and (and (and (and (and (INV_MAIN_42 M N O P Q R S T U V W X) (not (forall ((A Int)) (not (= (+ (* 4 A) (- I J)) (- 6)))))) (not (>= (- B C) 1))) (not (>= (+ J (- (* (- 4) H) I)) 3))) (not (= D A))) (not (= J G))) (= (+ E (- (* (- 4) B) A)) (- 4))) (= (- K G) (- 4))) (= M A)) (= (- N B) (- 1))) (= O C)) (= P D)) (= (+ Q (- (* (- 4) B) D)) (- 4))) (= R F)) (= (- S G) (- 4))) (= T H)) (= U I)) (= (- V J) (- 4))) (= (- W J) (- 4))) (= X L)) (INV_MAIN_42 A B C D E F G H I J K L))))
(assert (forall ((A Int) (B Int) (C Int) (D Int) (E Int) (F Int) (G Int) (H Int) (I Int) (J Int) (K Int) (L Int) (M Int) (N Int) (O Int) (P Int) (Q Int) (R Int) (S Int) (T Int) (U Int) (V Int) (W Int) (X Int))(=> (and (and (and (and (and (and (and (and (and (and (and (and (and (and (and (and (and (and (INV_MAIN_42 M N O P Q R S T U V W X) (not (>= (- B C) 1))) (not (>= (+ J (- (* (- 4) H) I)) 1))) (not (= D A))) (not (= J G))) (= (+ E (- (* (- 4) B) A)) (- 4))) (= (- K G) (- 4))) (= M A)) (= (- N B) (- 1))) (= O C)) (= P D)) (= (+ Q (- (* (- 4) B) D)) (- 4))) (= R F)) (= (- S G) (- 4))) (= T H)) (= U I)) (= (- V J) (- 4))) (= (- W J) (- 4))) (= X L)) (INV_MAIN_42 A B C D E F G H I J K L))))
(assert (forall ((A Int) (B Int) (C Int) (D Int) (E Int) (F Int) (G Int) (H Int) (I Int) (J Int) (K Int) (L Int) (M Int) (N Int) (O Int) (P Int) (Q Int) (R Int) (S Int) (T Int) (U Int) (V Int) (W Int) (X Int))(=> (and (and (and (and (and (and (and (and (and (and (and (and (and (and (and (and (and (and (and (INV_MAIN_42 M N O P Q R S T U V W X) (not (forall ((A Int)) (not (= (+ (* 4 A) (- I J)) (- 5)))))) (not (>= (- B C) 1))) (not (>= (+ J (- (* (- 4) H) I)) 2))) (not (= D A))) (not (= J G))) (= (+ E (- (* (- 4) B) A)) (- 4))) (= (- K G) (- 4))) (= M A)) (= (- N B) (- 1))) (= O C)) (= P D)) (= (+ Q (- (* (- 4) B) D)) (- 4))) (= R F)) (= (- S G) (- 4))) (= T H)) (= U I)) (= (- V J) (- 4))) (= (- W J) (- 4))) (= X L)) (INV_MAIN_42 A B C D E F G H I J K L))))
(assert (forall ((A Int) (B Int) (C Int) (D Int) (E Int) (F Int) (G Int) (H Int) (I Int) (J Int) (K Int) (L Int) (M Int) (N Int) (O Int) (P Int) (Q Int) (R Int) (S Int) (T Int) (U Int) (V Int) (W Int) (X Int))(=> (and (and (and (and (and (and (and (and (and (and (and (and (and (and (and (and (and (and (and (INV_MAIN_42 M N O P Q R S T U V W X) (not (forall ((A Int)) (not (= (+ (* 4 A) (- I J)) (- 3)))))) (not (>= (- B C) 1))) (not (>= (+ J (- (* (- 4) H) I)) 4))) (not (= D A))) (not (= J G))) (= (+ E (- (* (- 4) B) A)) (- 4))) (= (- K G) (- 4))) (= M A)) (= (- N B) (- 1))) (= O C)) (= P D)) (= (+ Q (- (* (- 4) B) D)) (- 4))) (= R F)) (= (- S G) (- 4))) (= T H)) (= U I)) (= (- V J) (- 4))) (= (- W J) (- 4))) (= X L)) (INV_MAIN_42 A B C D E F G H I J K L))))
(assert (forall ((A Int) (B Int) (C Int) (D Int) (E Int) (F Int) (G Int) (H Int) (I Int) (J Int) (K Int) (L Int) (M Int) (N Int) (O Int) (P Int) (Q Int) (R Int) (S Int) (T Int) (U Int) (V Int) (W Int) (X Int) (Y Int) (Z Int) (A1 Int) (B1 Int) (C1 Int) (D1 Int) (E1 Int) (F1 Int) (G1 Int) (H1 Int) (I1 Int) (J1 Int))(=> (and (and (and (and (and (and (and (and (and (and (and (and (and (and (and (and (and (and (and (and (and (and (and (and (and (and (and (and (and (and (and (INV_MAIN_42 M N O P Q R S T U V W X) (INV_MAIN_42 Y Z A1 B1 C1 D1 E1 F1 G1 H1 I1 J1)) (not (and (= (+ E (- (* (- 4) B) A)) (- 4)) (not (= R F))))) (not (and (= (+ E (- (* (- 4) B) D)) (- 4)) (not (= R F))))) (not (forall ((A Int)) (not (= (+ (* 4 A) (- I J)) (- 3)))))) (not (>= (- B C) 1))) (not (>= (+ J (- (* (- 4) H) I)) 4))) (not (= J G))) (= (- K G) (- 4))) (= Y A)) (= (- Z B) (- 1))) (= A1 C)) (= B1 D)) (= C1 E)) (= D1 F)) (= (- E1 G) (- 4))) (= F1 H)) (= G1 I)) (= (- H1 J) (- 4))) (= (- I1 J) (- 4))) (= J1 L)) (= M A)) (= (- N B) (- 1))) (= O C)) (= P D)) (= (+ Q (- (* (- 4) B) D)) (- 4))) (= (- S G) (- 4))) (= T H)) (= U I)) (= (- V J) (- 4))) (= (- W J) (- 4))) (= X L)) (INV_MAIN_42 A B C D E F G H I J K L))))
(assert (forall ((A Int) (B Int) (C Int) (D Int) (E Int) (F Int) (G Int) (H Int) (I Int) (J Int) (K Int) (L Int) (M Int) (N Int) (O Int) (P Int) (Q Int) (R Int) (S Int) (T Int) (U Int) (V Int) (W Int) (X Int) (Y Int) (Z Int) (A1 Int) (B1 Int) (C1 Int) (D1 Int) (E1 Int) (F1 Int) (G1 Int) (H1 Int) (I1 Int) (J1 Int))(=> (and (and (and (and (and (and (and (and (and (and (and (and (and (and (and (and (and (and (and (and (and (and (and (and (and (and (and (and (and (and (and (INV_MAIN_42 M N O P Q R S T U V W X) (INV_MAIN_42 Y Z A1 B1 C1 D1 E1 F1 G1 H1 I1 J1)) (not (and (= (+ E (- (* (- 4) B) A)) (- 4)) (not (= R F))))) (not (and (= (+ E (- (* (- 4) B) D)) (- 4)) (not (= R F))))) (not (forall ((A Int)) (not (= (+ (* 4 A) (- I J)) (- 5)))))) (not (>= (- B C) 1))) (not (>= (+ J (- (* (- 4) H) I)) 2))) (not (= J G))) (= (- K G) (- 4))) (= Y A)) (= (- Z B) (- 1))) (= A1 C)) (= B1 D)) (= C1 E)) (= D1 F)) (= (- E1 G) (- 4))) (= F1 H)) (= G1 I)) (= (- H1 J) (- 4))) (= (- I1 J) (- 4))) (= J1 L)) (= M A)) (= (- N B) (- 1))) (= O C)) (= P D)) (= (+ Q (- (* (- 4) B) D)) (- 4))) (= (- S G) (- 4))) (= T H)) (= U I)) (= (- V J) (- 4))) (= (- W J) (- 4))) (= X L)) (INV_MAIN_42 A B C D E F G H I J K L))))
(assert (forall ((A Int) (B Int) (C Int) (D Int) (E Int) (F Int) (G Int) (H Int) (I Int) (J Int) (K Int) (L Int) (M Int) (N Int) (O Int) (P Int) (Q Int) (R Int) (S Int) (T Int) (U Int) (V Int) (W Int) (X Int) (Y Int) (Z Int) (A1 Int) (B1 Int) (C1 Int) (D1 Int) (E1 Int) (F1 Int) (G1 Int) (H1 Int) (I1 Int) (J1 Int))(=> (and (and (and (and (and (and (and (and (and (and (and (and (and (and (and (and (and (and (and (and (and (and (and (and (and (and (and (and (and (and (and (INV_MAIN_42 M N O P Q R S T U V W X) (INV_MAIN_42 Y Z A1 B1 C1 D1 E1 F1 G1 H1 I1 J1)) (not (and (= (+ E (- (* (- 4) B) A)) (- 4)) (not (= R F))))) (not (and (= (+ E (- (* (- 4) B) D)) (- 4)) (not (= R F))))) (not (forall ((A Int)) (not (= (+ (* 4 A) (- I J)) (- 6)))))) (not (>= (- B C) 1))) (not (>= (+ J (- (* (- 4) H) I)) 3))) (not (= J G))) (= (- K G) (- 4))) (= Y A)) (= (- Z B) (- 1))) (= A1 C)) (= B1 D)) (= C1 E)) (= D1 F)) (= (- E1 G) (- 4))) (= F1 H)) (= G1 I)) (= (- H1 J) (- 4))) (= (- I1 J) (- 4))) (= J1 L)) (= M A)) (= (- N B) (- 1))) (= O C)) (= P D)) (= (+ Q (- (* (- 4) B) D)) (- 4))) (= (- S G) (- 4))) (= T H)) (= U I)) (= (- V J) (- 4))) (= (- W J) (- 4))) (= X L)) (INV_MAIN_42 A B C D E F G H I J K L))))
(assert (forall ((A Int) (B Int) (C Int) (D Int) (E Int) (F Int) (G Int) (H Int) (I Int) (J Int) (K Int) (L Int) (M Int) (N Int) (O Int) (P Int) (Q Int) (R Int) (S Int) (T Int) (U Int) (V Int) (W Int) (X Int) (Y Int) (Z Int) (A1 Int) (B1 Int) (C1 Int) (D1 Int) (E1 Int) (F1 Int) (G1 Int) (H1 Int) (I1 Int) (J1 Int))(=> (and (and (and (and (and (and (and (and (and (and (and (and (and (and (and (and (and (and (and (and (and (and (and (and (and (and (and (and (and (and (INV_MAIN_42 M N O P Q R S T U V W X) (INV_MAIN_42 Y Z A1 B1 C1 D1 E1 F1 G1 H1 I1 J1)) (not (and (= (+ E (- (* (- 4) B) A)) (- 4)) (not (= R F))))) (not (and (= (+ E (- (* (- 4) B) D)) (- 4)) (not (= R F))))) (not (>= (- B C) 1))) (not (>= (+ J (- (* (- 4) H) I)) 1))) (not (= J G))) (= (- K G) (- 4))) (= Y A)) (= (- Z B) (- 1))) (= A1 C)) (= B1 D)) (= C1 E)) (= D1 F)) (= (- E1 G) (- 4))) (= F1 H)) (= G1 I)) (= (- H1 J) (- 4))) (= (- I1 J) (- 4))) (= J1 L)) (= M A)) (= (- N B) (- 1))) (= O C)) (= P D)) (= (+ Q (- (* (- 4) B) D)) (- 4))) (= (- S G) (- 4))) (= T H)) (= U I)) (= (- V J) (- 4))) (= (- W J) (- 4))) (= X L)) (INV_MAIN_42 A B C D E F G H I J K L))))
(assert (forall ((A Int) (B Int) (C Int) (D Int) (E Int) (F Int) (G Int) (H Int) (I Int) (J Int) (K Int) (L Int) (M Int) (N Int) (O Int) (P Int) (Q Int) (R Int) (S Int) (T Int) (U Int) (V Int) (W Int) (X Int))(=> (and (and (and (and (and (and (and (and (and (and (and (and (and (and (and (and (and (INV_MAIN_42 M N O P Q R S T U V W X) (not (forall ((A Int)) (not (= (+ (* 4 A) (- I J)) (- 1)))))) (not (>= (- B C) 1))) (not (<= J (+ I (* 4 H))))) (not (= D A))) (= (+ E (- (* (- 4) B) A)) (- 4))) (= M A)) (= (- N B) (- 1))) (= O C)) (= P D)) (= (+ Q (- (* (- 4) B) D)) (- 4))) (= R F)) (= S G)) (= T H)) (= U I)) (= V J)) (= W K)) (= X L)) (INV_MAIN_42 A B C D E F G H I J K L))))
(assert (forall ((A Int) (B Int) (C Int) (D Int) (E Int) (F Int) (G Int) (H Int) (I Int) (J Int) (K Int) (L Int) (M Int) (N Int) (O Int) (P Int) (Q Int) (R Int) (S Int) (T Int) (U Int) (V Int) (W Int) (X Int))(=> (and (and (and (and (and (and (and (and (and (and (and (and (and (and (and (and (and (INV_MAIN_42 M N O P Q R S T U V W X) (not (forall ((A Int)) (not (= (+ (* 4 A) (- I J)) 1))))) (not (>= (- B C) 1))) (not (>= (- (+ I (* 4 H)) J) (- 2)))) (not (= D A))) (= (+ E (- (* (- 4) B) A)) (- 4))) (= M A)) (= (- N B) (- 1))) (= O C)) (= P D)) (= (+ Q (- (* (- 4) B) D)) (- 4))) (= R F)) (= S G)) (= T H)) (= U I)) (= V J)) (= W K)) (= X L)) (INV_MAIN_42 A B C D E F G H I J K L))))
(assert (forall ((A Int) (B Int) (C Int) (D Int) (E Int) (F Int) (G Int) (H Int) (I Int) (J Int) (K Int) (L Int) (M Int) (N Int) (O Int) (P Int) (Q Int) (R Int) (S Int) (T Int) (U Int) (V Int) (W Int) (X Int))(=> (and (and (and (and (and (and (and (and (and (and (and (and (and (and (and (and (and (INV_MAIN_42 M N O P Q R S T U V W X) (not (forall ((A Int)) (not (= (+ (* 4 A) (- I J)) (- 2)))))) (not (>= (- B C) 1))) (not (>= (- (+ I (* 4 H)) J) (- 1)))) (not (= D A))) (= (+ E (- (* (- 4) B) A)) (- 4))) (= M A)) (= (- N B) (- 1))) (= O C)) (= P D)) (= (+ Q (- (* (- 4) B) D)) (- 4))) (= R F)) (= S G)) (= T H)) (= U I)) (= V J)) (= W K)) (= X L)) (INV_MAIN_42 A B C D E F G H I J K L))))
(assert (forall ((A Int) (B Int) (C Int) (D Int) (E Int) (F Int) (G Int) (H Int) (I Int) (J Int) (K Int) (L Int) (M Int) (N Int) (O Int) (P Int) (Q Int) (R Int) (S Int) (T Int) (U Int) (V Int) (W Int) (X Int))(=> (and (and (and (and (and (and (and (and (and (and (and (and (and (and (and (and (INV_MAIN_42 M N O P Q R S T U V W X) (not (>= (- B C) 1))) (not (>= (- (+ I (* 4 H)) J) 1))) (not (= D A))) (= (+ E (- (* (- 4) B) A)) (- 4))) (= M A)) (= (- N B) (- 1))) (= O C)) (= P D)) (= (+ Q (- (* (- 4) B) D)) (- 4))) (= R F)) (= S G)) (= T H)) (= U I)) (= V J)) (= W K)) (= X L)) (INV_MAIN_42 A B C D E F G H I J K L))))
(assert (forall ((A Int) (B Int) (C Int) (D Int) (E Int) (F Int) (G Int) (H Int) (I Int) (J Int) (K Int) (L Int) (M Int) (N Int) (O Int) (P Int) (Q Int) (R Int) (S Int) (T Int) (U Int) (V Int) (W Int) (X Int) (Y Int) (Z Int) (A1 Int) (B1 Int) (C1 Int) (D1 Int) (E1 Int) (F1 Int) (G1 Int) (H1 Int) (I1 Int) (J1 Int))(=> (and (and (and (and (and (and (and (and (and (and (and (and (and (and (and (and (and (and (and (and (and (and (and (and (and (and (and (and (and (INV_MAIN_42 M N O P Q R S T U V W X) (INV_MAIN_42 Y Z A1 B1 C1 D1 E1 F1 G1 H1 I1 J1)) (not (and (= (+ E (- (* (- 4) B) A)) (- 4)) (not (= R F))))) (not (and (= (+ E (- (* (- 4) B) D)) (- 4)) (not (= R F))))) (not (forall ((A Int)) (not (= (+ (* 4 A) (- I J)) 1))))) (not (>= (- B C) 1))) (not (>= (- (+ I (* 4 H)) J) (- 2)))) (= Y A)) (= (- Z B) (- 1))) (= A1 C)) (= B1 D)) (= C1 E)) (= D1 F)) (= E1 G)) (= F1 H)) (= G1 I)) (= H1 J)) (= I1 K)) (= J1 L)) (= M A)) (= (- N B) (- 1))) (= O C)) (= P D)) (= (+ Q (- (* (- 4) B) D)) (- 4))) (= S G)) (= T H)) (= U I)) (= V J)) (= W K)) (= X L)) (INV_MAIN_42 A B C D E F G H I J K L))))
(assert (forall ((A Int) (B Int) (C Int) (D Int) (E Int) (F Int) (G Int) (H Int) (I Int) (J Int) (K Int) (L Int) (M Int) (N Int) (O Int) (P Int) (Q Int) (R Int) (S Int) (T Int) (U Int) (V Int) (W Int) (X Int) (Y Int) (Z Int) (A1 Int) (B1 Int) (C1 Int) (D1 Int) (E1 Int) (F1 Int) (G1 Int) (H1 Int) (I1 Int) (J1 Int))(=> (and (and (and (and (and (and (and (and (and (and (and (and (and (and (and (and (and (and (and (and (and (and (and (and (and (and (and (and (and (INV_MAIN_42 M N O P Q R S T U V W X) (INV_MAIN_42 Y Z A1 B1 C1 D1 E1 F1 G1 H1 I1 J1)) (not (and (= (+ E (- (* (- 4) B) A)) (- 4)) (not (= R F))))) (not (and (= (+ E (- (* (- 4) B) D)) (- 4)) (not (= R F))))) (not (forall ((A Int)) (not (= (+ (* 4 A) (- I J)) (- 1)))))) (not (>= (- B C) 1))) (not (<= J (+ I (* 4 H))))) (= Y A)) (= (- Z B) (- 1))) (= A1 C)) (= B1 D)) (= C1 E)) (= D1 F)) (= E1 G)) (= F1 H)) (= G1 I)) (= H1 J)) (= I1 K)) (= J1 L)) (= M A)) (= (- N B) (- 1))) (= O C)) (= P D)) (= (+ Q (- (* (- 4) B) D)) (- 4))) (= S G)) (= T H)) (= U I)) (= V J)) (= W K)) (= X L)) (INV_MAIN_42 A B C D E F G H I J K L))))
(assert (forall ((A Int) (B Int) (C Int) (D Int) (E Int) (F Int) (G Int) (H Int) (I Int) (J Int) (K Int) (L Int) (M Int) (N Int) (O Int) (P Int) (Q Int) (R Int) (S Int) (T Int) (U Int) (V Int) (W Int) (X Int) (Y Int) (Z Int) (A1 Int) (B1 Int) (C1 Int) (D1 Int) (E1 Int) (F1 Int) (G1 Int) (H1 Int) (I1 Int) (J1 Int))(=> (and (and (and (and (and (and (and (and (and (and (and (and (and (and (and (and (and (and (and (and (and (and (and (and (and (and (and (and (INV_MAIN_42 M N O P Q R S T U V W X) (INV_MAIN_42 Y Z A1 B1 C1 D1 E1 F1 G1 H1 I1 J1)) (not (and (= (+ E (- (* (- 4) B) A)) (- 4)) (not (= R F))))) (not (and (= (+ E (- (* (- 4) B) D)) (- 4)) (not (= R F))))) (not (>= (- B C) 1))) (not (>= (- (+ I (* 4 H)) J) 1))) (= Y A)) (= (- Z B) (- 1))) (= A1 C)) (= B1 D)) (= C1 E)) (= D1 F)) (= E1 G)) (= F1 H)) (= G1 I)) (= H1 J)) (= I1 K)) (= J1 L)) (= M A)) (= (- N B) (- 1))) (= O C)) (= P D)) (= (+ Q (- (* (- 4) B) D)) (- 4))) (= S G)) (= T H)) (= U I)) (= V J)) (= W K)) (= X L)) (INV_MAIN_42 A B C D E F G H I J K L))))
(assert (forall ((A Int) (B Int) (C Int) (D Int) (E Int) (F Int) (G Int) (H Int) (I Int) (J Int) (K Int) (L Int) (M Int) (N Int) (O Int) (P Int) (Q Int) (R Int) (S Int) (T Int) (U Int) (V Int) (W Int) (X Int) (Y Int) (Z Int) (A1 Int) (B1 Int) (C1 Int) (D1 Int) (E1 Int) (F1 Int) (G1 Int) (H1 Int) (I1 Int) (J1 Int))(=> (and (and (and (and (and (and (and (and (and (and (and (and (and (and (and (and (and (and (and (and (and (and (and (and (and (and (and (and (and (INV_MAIN_42 M N O P Q R S T U V W X) (INV_MAIN_42 Y Z A1 B1 C1 D1 E1 F1 G1 H1 I1 J1)) (not (and (= (+ E (- (* (- 4) B) A)) (- 4)) (not (= R F))))) (not (and (= (+ E (- (* (- 4) B) D)) (- 4)) (not (= R F))))) (not (forall ((A Int)) (not (= (+ (* 4 A) (- I J)) (- 2)))))) (not (>= (- B C) 1))) (not (>= (- (+ I (* 4 H)) J) (- 1)))) (= Y A)) (= (- Z B) (- 1))) (= A1 C)) (= B1 D)) (= C1 E)) (= D1 F)) (= E1 G)) (= F1 H)) (= G1 I)) (= H1 J)) (= I1 K)) (= J1 L)) (= M A)) (= (- N B) (- 1))) (= O C)) (= P D)) (= (+ Q (- (* (- 4) B) D)) (- 4))) (= S G)) (= T H)) (= U I)) (= V J)) (= W K)) (= X L)) (INV_MAIN_42 A B C D E F G H I J K L))))
(assert (forall ((A Int) (B Int) (C Int) (D Int) (E Int) (F Int) (G Int) (H Int) (I Int) (J Int) (K Int) (L Int) (M Int) (N Int) (O Int) (P Int) (Q Int) (R Int) (S Int) (T Int) (U Int) (V Int) (W Int) (X Int))(=> (and (and (and (and (and (and (and (and (and (and (and (and (and (and (and (and (and (INV_MAIN_42 M N O P Q R S T U V W X) (not (forall ((A Int)) (not (= (+ (* 4 A) (- I J)) (- 6)))))) (not (>= (- C B) 1))) (not (>= (+ J (- (* (- 4) H) I)) 3))) (not (= J G))) (= (- K G) (- 4))) (= M A)) (= N B)) (= O C)) (= P D)) (= Q E)) (= R F)) (= (- S G) (- 4))) (= T H)) (= U I)) (= (- V J) (- 4))) (= (- W J) (- 4))) (= X L)) (INV_MAIN_42 A B C D E F G H I J K L))))
(assert (forall ((A Int) (B Int) (C Int) (D Int) (E Int) (F Int) (G Int) (H Int) (I Int) (J Int) (K Int) (L Int) (M Int) (N Int) (O Int) (P Int) (Q Int) (R Int) (S Int) (T Int) (U Int) (V Int) (W Int) (X Int))(=> (and (and (and (and (and (and (and (and (and (and (and (and (and (and (and (and (and (INV_MAIN_42 M N O P Q R S T U V W X) (not (forall ((A Int)) (not (= (+ (* 4 A) (- I J)) (- 5)))))) (not (>= (- C B) 1))) (not (>= (+ J (- (* (- 4) H) I)) 2))) (not (= J G))) (= (- K G) (- 4))) (= M A)) (= N B)) (= O C)) (= P D)) (= Q E)) (= R F)) (= (- S G) (- 4))) (= T H)) (= U I)) (= (- V J) (- 4))) (= (- W J) (- 4))) (= X L)) (INV_MAIN_42 A B C D E F G H I J K L))))
(assert (forall ((A Int) (B Int) (C Int) (D Int) (E Int) (F Int) (G Int) (H Int) (I Int) (J Int) (K Int) (L Int) (M Int) (N Int) (O Int) (P Int) (Q Int) (R Int) (S Int) (T Int) (U Int) (V Int) (W Int) (X Int))(=> (and (and (and (and (and (and (and (and (and (and (and (and (and (and (and (and (INV_MAIN_42 M N O P Q R S T U V W X) (not (>= (- C B) 1))) (not (>= (+ J (- (* (- 4) H) I)) 1))) (not (= J G))) (= (- K G) (- 4))) (= M A)) (= N B)) (= O C)) (= P D)) (= Q E)) (= R F)) (= (- S G) (- 4))) (= T H)) (= U I)) (= (- V J) (- 4))) (= (- W J) (- 4))) (= X L)) (INV_MAIN_42 A B C D E F G H I J K L))))
(assert (forall ((A Int) (B Int) (C Int) (D Int) (E Int) (F Int) (G Int) (H Int) (I Int) (J Int) (K Int) (L Int) (M Int) (N Int) (O Int) (P Int) (Q Int) (R Int) (S Int) (T Int) (U Int) (V Int) (W Int) (X Int))(=> (and (and (and (and (and (and (and (and (and (and (and (and (and (and (and (and (and (INV_MAIN_42 M N O P Q R S T U V W X) (not (forall ((A Int)) (not (= (+ (* 4 A) (- I J)) (- 3)))))) (not (>= (- C B) 1))) (not (>= (+ J (- (* (- 4) H) I)) 4))) (not (= J G))) (= (- K G) (- 4))) (= M A)) (= N B)) (= O C)) (= P D)) (= Q E)) (= R F)) (= (- S G) (- 4))) (= T H)) (= U I)) (= (- V J) (- 4))) (= (- W J) (- 4))) (= X L)) (INV_MAIN_42 A B C D E F G H I J K L))))
(assert (forall ((A Int) (B Int) (C Int) (D Int) (E Int) (F Int) (G Int) (H Int) (I Int) (J Int) (K Int) (L Int) (M Int) (N Int) (O Int) (P Int) (Q Int) (R Int) (S Int) (T Int) (U Int) (V Int) (W Int) (X Int) (Y Int) (Z Int) (A1 Int) (B1 Int) (C1 Int) (D1 Int) (E1 Int) (F1 Int) (G1 Int) (H1 Int) (I1 Int) (J1 Int))(=> (and (and (and (and (and (and (and (and (and (and (and (and (and (and (and (and (and (and (and (and (and (and (and (and (and (and (and (and (and (INV_MAIN_42 M N O P Q R S T U V W X) (INV_MAIN_42 Y Z A1 B1 C1 D1 E1 F1 G1 H1 I1 J1)) (not (and (= (- K G) (- 4)) (not (= X L))))) (not (and (= (- K J) (- 4)) (not (= X L))))) (not (forall ((A Int)) (not (= (+ (* 4 A) (- I J)) (- 5)))))) (not (>= (- C B) 1))) (not (>= (+ J (- (* (- 4) H) I)) 2))) (= Y A)) (= Z B)) (= A1 C)) (= B1 D)) (= C1 E)) (= D1 F)) (= (- E1 G) (- 4))) (= F1 H)) (= G1 I)) (= (- H1 J) (- 4))) (= I1 K)) (= J1 L)) (= M A)) (= N B)) (= O C)) (= P D)) (= Q E)) (= R F)) (= (- S G) (- 4))) (= T H)) (= U I)) (= (- V J) (- 4))) (= (- W J) (- 4))) (INV_MAIN_42 A B C D E F G H I J K L))))
(assert (forall ((A Int) (B Int) (C Int) (D Int) (E Int) (F Int) (G Int) (H Int) (I Int) (J Int) (K Int) (L Int) (M Int) (N Int) (O Int) (P Int) (Q Int) (R Int) (S Int) (T Int) (U Int) (V Int) (W Int) (X Int) (Y Int) (Z Int) (A1 Int) (B1 Int) (C1 Int) (D1 Int) (E1 Int) (F1 Int) (G1 Int) (H1 Int) (I1 Int) (J1 Int))(=> (and (and (and (and (and (and (and (and (and (and (and (and (and (and (and (and (and (and (and (and (and (and (and (and (and (and (and (and (and (INV_MAIN_42 M N O P Q R S T U V W X) (INV_MAIN_42 Y Z A1 B1 C1 D1 E1 F1 G1 H1 I1 J1)) (not (and (= (- K G) (- 4)) (not (= X L))))) (not (and (= (- K J) (- 4)) (not (= X L))))) (not (forall ((A Int)) (not (= (+ (* 4 A) (- I J)) (- 3)))))) (not (>= (- C B) 1))) (not (>= (+ J (- (* (- 4) H) I)) 4))) (= Y A)) (= Z B)) (= A1 C)) (= B1 D)) (= C1 E)) (= D1 F)) (= (- E1 G) (- 4))) (= F1 H)) (= G1 I)) (= (- H1 J) (- 4))) (= I1 K)) (= J1 L)) (= M A)) (= N B)) (= O C)) (= P D)) (= Q E)) (= R F)) (= (- S G) (- 4))) (= T H)) (= U I)) (= (- V J) (- 4))) (= (- W J) (- 4))) (INV_MAIN_42 A B C D E F G H I J K L))))
(assert (forall ((A Int) (B Int) (C Int) (D Int) (E Int) (F Int) (G Int) (H Int) (I Int) (J Int) (K Int) (L Int) (M Int) (N Int) (O Int) (P Int) (Q Int) (R Int) (S Int) (T Int) (U Int) (V Int) (W Int) (X Int) (Y Int) (Z Int) (A1 Int) (B1 Int) (C1 Int) (D1 Int) (E1 Int) (F1 Int) (G1 Int) (H1 Int) (I1 Int) (J1 Int))(=> (and (and (and (and (and (and (and (and (and (and (and (and (and (and (and (and (and (and (and (and (and (and (and (and (and (and (and (and (INV_MAIN_42 M N O P Q R S T U V W X) (INV_MAIN_42 Y Z A1 B1 C1 D1 E1 F1 G1 H1 I1 J1)) (not (and (= (- K G) (- 4)) (not (= X L))))) (not (and (= (- K J) (- 4)) (not (= X L))))) (not (>= (- C B) 1))) (not (>= (+ J (- (* (- 4) H) I)) 1))) (= Y A)) (= Z B)) (= A1 C)) (= B1 D)) (= C1 E)) (= D1 F)) (= (- E1 G) (- 4))) (= F1 H)) (= G1 I)) (= (- H1 J) (- 4))) (= I1 K)) (= J1 L)) (= M A)) (= N B)) (= O C)) (= P D)) (= Q E)) (= R F)) (= (- S G) (- 4))) (= T H)) (= U I)) (= (- V J) (- 4))) (= (- W J) (- 4))) (INV_MAIN_42 A B C D E F G H I J K L))))
(assert (forall ((A Int) (B Int) (C Int) (D Int) (E Int) (F Int) (G Int) (H Int) (I Int) (J Int) (K Int) (L Int) (M Int) (N Int) (O Int) (P Int) (Q Int) (R Int) (S Int) (T Int) (U Int) (V Int) (W Int) (X Int) (Y Int) (Z Int) (A1 Int) (B1 Int) (C1 Int) (D1 Int) (E1 Int) (F1 Int) (G1 Int) (H1 Int) (I1 Int) (J1 Int))(=> (and (and (and (and (and (and (and (and (and (and (and (and (and (and (and (and (and (and (and (and (and (and (and (and (and (and (and (and (and (INV_MAIN_42 M N O P Q R S T U V W X) (INV_MAIN_42 Y Z A1 B1 C1 D1 E1 F1 G1 H1 I1 J1)) (not (and (= (- K G) (- 4)) (not (= X L))))) (not (and (= (- K J) (- 4)) (not (= X L))))) (not (forall ((A Int)) (not (= (+ (* 4 A) (- I J)) (- 6)))))) (not (>= (- C B) 1))) (not (>= (+ J (- (* (- 4) H) I)) 3))) (= Y A)) (= Z B)) (= A1 C)) (= B1 D)) (= C1 E)) (= D1 F)) (= (- E1 G) (- 4))) (= F1 H)) (= G1 I)) (= (- H1 J) (- 4))) (= I1 K)) (= J1 L)) (= M A)) (= N B)) (= O C)) (= P D)) (= Q E)) (= R F)) (= (- S G) (- 4))) (= T H)) (= U I)) (= (- V J) (- 4))) (= (- W J) (- 4))) (INV_MAIN_42 A B C D E F G H I J K L))))
(check-sat)
